NAME : portcgen-20-100
COMMENT : portcgen N=20, seed=100
TYPE : TSP
DIMENSION : 20
EDGE_WEIGHT_TYPE : EUC_2D
NODE_COORD_SECTION
1 95 76
2 100 67
3 93 58
4 89 87
5 87 56
6 78 61
7 70 67
8 75 70
9 91 72
10 105 84
11 54 83
12 98 49
13 109 69
14 95 84
15 82 80
16 72 70
17 96 84
18 85 45
19 95 88
20 87 79
